SCIP version 8.0.0 [precision: 8 byte] [memory: block] [mode: optimized] [LP solver: SoPlex 6.0.0] [GitHash: a740f0891e]
Copyright (C) 2002-2021 Konrad-Zuse-Zentrum fuer Informationstechnik Berlin (ZIB)

External libraries: 
  SoPlex 6.0.0         Linear Programming Solver developed at Zuse Institute Berlin (soplex.zib.de) [GitHash: 71a5873d]
  CppAD 20180000.0     Algorithmic Differentiation of C++ algorithms developed by B. Bell (github.com/coin-or/CppAD)
  ZLIB 1.2.11          General purpose compression library by J. Gailly and M. Adler (zlib.net)
  GMP 6.2.1            GNU Multiple Precision Arithmetic Library developed by T. Granlund (gmplib.org)
  ZIMPL 3.5.1          Zuse Institute Mathematical Programming Language developed by T. Koch (zimpl.zib.de)
  AMPL/MP 4e2d45c4     AMPL .nl file reader library (github.com/ampl/mp)
  PaPILO 2.0.0         parallel presolve for integer and linear optimization (github.com/scipopt/papilo) [GitHash: 76cafc1]
  bliss 0.73p          Computing Graph Automorphism Groups by T. Junttila and P. Kaski (www.tcs.hut.fi/Software/bliss/)
  Ipopt 3.13.2         Interior Point Optimizer developed by A. Waechter et.al. (github.com/coin-or/Ipopt)

user parameter file <scip.set> not found - using default parameters

read problem <../modeles/3_179.lp>
============

original problem has 1080 variables (537 bin, 0 int, 0 impl, 543 cont) and 550 constraints

solve problem
=============

presolving:
(round 1, fast)       3 del vars, 0 del conss, 0 add conss, 1152 chg bounds, 0 chg sides, 0 chg coeffs, 0 upgd conss, 0 impls, 3 clqs
(round 2, fast)       3 del vars, 0 del conss, 0 add conss, 1152 chg bounds, 0 chg sides, 534 chg coeffs, 0 upgd conss, 0 impls, 3 clqs
   (0.0s) running MILP presolver
   (0.0s) MILP presolver (2 rounds): 0 aggregations, 0 fixings, 6 bound changes
(round 3, exhaustive) 3 del vars, 0 del conss, 0 add conss, 1158 chg bounds, 0 chg sides, 534 chg coeffs, 9 upgd conss, 0 impls, 3 clqs
   (0.0s) sparsify finished: 2/3771 (0.1%) nonzeros canceled - in total 2 canceled nonzeros, 180 changed coefficients, 0 added nonzeros
(round 4, exhaustive) 3 del vars, 0 del conss, 0 add conss, 1158 chg bounds, 0 chg sides, 714 chg coeffs, 9 upgd conss, 6 impls, 3 clqs
(round 5, exhaustive) 28 del vars, 0 del conss, 0 add conss, 1158 chg bounds, 0 chg sides, 714 chg coeffs, 9 upgd conss, 3207 impls, 3 clqs
(round 6, exhaustive) 28 del vars, 0 del conss, 0 add conss, 1158 chg bounds, 0 chg sides, 714 chg coeffs, 51 upgd conss, 3207 impls, 3 clqs
(round 7, exhaustive) 53 del vars, 0 del conss, 0 add conss, 1158 chg bounds, 0 chg sides, 714 chg coeffs, 51 upgd conss, 6429 impls, 3 clqs
(round 8, fast)       53 del vars, 3 del conss, 0 add conss, 1158 chg bounds, 0 chg sides, 714 chg coeffs, 51 upgd conss, 6429 impls, 3 clqs
(round 9, exhaustive) 53 del vars, 3 del conss, 0 add conss, 1158 chg bounds, 0 chg sides, 714 chg coeffs, 88 upgd conss, 6429 impls, 3 clqs
(round 10, exhaustive) 78 del vars, 3 del conss, 0 add conss, 1158 chg bounds, 0 chg sides, 714 chg coeffs, 88 upgd conss, 9794 impls, 3 clqs
(round 11, fast)       78 del vars, 9 del conss, 0 add conss, 1158 chg bounds, 0 chg sides, 714 chg coeffs, 88 upgd conss, 9794 impls, 3 clqs
(round 12, exhaustive) 78 del vars, 9 del conss, 0 add conss, 1158 chg bounds, 0 chg sides, 714 chg coeffs, 115 upgd conss, 9794 impls, 3 clqs
(round 13, exhaustive) 103 del vars, 9 del conss, 0 add conss, 1158 chg bounds, 0 chg sides, 714 chg coeffs, 115 upgd conss, 12055 impls, 3 clqs
(round 14, fast)       104 del vars, 21 del conss, 0 add conss, 1159 chg bounds, 0 chg sides, 714 chg coeffs, 115 upgd conss, 12055 impls, 3 clqs
(round 15, exhaustive) 104 del vars, 21 del conss, 0 add conss, 1159 chg bounds, 0 chg sides, 714 chg coeffs, 131 upgd conss, 12055 impls, 3 clqs
(round 16, exhaustive) 129 del vars, 21 del conss, 0 add conss, 1159 chg bounds, 0 chg sides, 714 chg coeffs, 131 upgd conss, 14615 impls, 3 clqs
(round 17, fast)       129 del vars, 30 del conss, 0 add conss, 1159 chg bounds, 0 chg sides, 714 chg coeffs, 131 upgd conss, 14615 impls, 3 clqs
(round 18, exhaustive) 129 del vars, 30 del conss, 0 add conss, 1159 chg bounds, 0 chg sides, 714 chg coeffs, 151 upgd conss, 14615 impls, 3 clqs
(round 19, exhaustive) 154 del vars, 30 del conss, 0 add conss, 1159 chg bounds, 0 chg sides, 714 chg coeffs, 151 upgd conss, 17283 impls, 3 clqs
(round 20, fast)       154 del vars, 39 del conss, 0 add conss, 1159 chg bounds, 0 chg sides, 714 chg coeffs, 151 upgd conss, 17283 impls, 3 clqs
(round 21, exhaustive) 154 del vars, 39 del conss, 0 add conss, 1159 chg bounds, 0 chg sides, 714 chg coeffs, 166 upgd conss, 17283 impls, 3 clqs
(round 22, exhaustive) 180 del vars, 39 del conss, 0 add conss, 1159 chg bounds, 0 chg sides, 714 chg coeffs, 166 upgd conss, 19733 impls, 3 clqs
(round 23, fast)       180 del vars, 53 del conss, 0 add conss, 1159 chg bounds, 0 chg sides, 714 chg coeffs, 166 upgd conss, 19733 impls, 3 clqs
   (0.1s) running MILP presolver
   (0.2s) MILP presolver (21 rounds): 0 aggregations, 281 fixings, 0 bound changes
(round 24, medium)     461 del vars, 146 del conss, 0 add conss, 1159 chg bounds, 0 chg sides, 714 chg coeffs, 166 upgd conss, 19733 impls, 3 clqs
(round 25, fast)       461 del vars, 215 del conss, 0 add conss, 1159 chg bounds, 0 chg sides, 714 chg coeffs, 166 upgd conss, 19733 impls, 3 clqs
(round 26, exhaustive) 461 del vars, 215 del conss, 0 add conss, 1159 chg bounds, 0 chg sides, 714 chg coeffs, 182 upgd conss, 19733 impls, 3 clqs
(round 27, exhaustive) 486 del vars, 215 del conss, 0 add conss, 1159 chg bounds, 0 chg sides, 714 chg coeffs, 182 upgd conss, 25573 impls, 3 clqs
(round 28, fast)       488 del vars, 228 del conss, 0 add conss, 1161 chg bounds, 0 chg sides, 714 chg coeffs, 182 upgd conss, 25573 impls, 3 clqs
(round 29, exhaustive) 488 del vars, 228 del conss, 0 add conss, 1161 chg bounds, 0 chg sides, 714 chg coeffs, 185 upgd conss, 25573 impls, 3 clqs
   (0.2s) sparsify finished: 4/2077 (0.2%) nonzeros canceled - in total 6 canceled nonzeros, 382 changed coefficients, 0 added nonzeros
(round 30, exhaustive) 488 del vars, 228 del conss, 0 add conss, 1161 chg bounds, 0 chg sides, 916 chg coeffs, 185 upgd conss, 25576 impls, 3 clqs
   (0.2s) probing cycle finished: starting next cycle
   (0.2s) probing: 51/284 (18.0%) - 216 fixings, 0 aggregations, 36463 implications, 0 bound changes
   (0.2s) probing aborted: 50/50 successive totally useless probings
(round 31, exhaustive) 503 del vars, 228 del conss, 0 add conss, 1161 chg bounds, 0 chg sides, 916 chg coeffs, 185 upgd conss, 36645 impls, 3 clqs
(round 32, fast)       503 del vars, 238 del conss, 0 add conss, 1161 chg bounds, 0 chg sides, 916 chg coeffs, 185 upgd conss, 36645 impls, 3 clqs
   (0.2s) probing: 56/284 (19.7%) - 216 fixings, 0 aggregations, 36463 implications, 0 bound changes
   (0.2s) probing aborted: 50/50 successive totally useless probings
   (0.2s) symmetry computation started: requiring (bin +, int -, cont +), (fixed: bin -, int +, cont -)
   (0.2s) no symmetry present
presolving (33 rounds: 33 fast, 22 medium, 21 exhaustive):
 503 deleted vars, 238 deleted constraints, 0 added constraints, 1161 tightened bounds, 0 added holes, 0 changed sides, 916 changed coefficients
 36645 implications, 3 cliques
presolved problem has 577 variables (284 bin, 0 int, 0 impl, 293 cont) and 303 constraints
     18 constraints of type <varbound>
      3 constraints of type <setppc>
    282 constraints of type <linear>
Presolving Time: 0.25

 time | node  | left  |LP iter|LP it/n|mem/heur|mdpt |vars |cons |rows |cuts |sepa|confs|strbr|  dualbound   | primalbound  |  gap   | compl. 
  0.3s|     1 |     0 |   225 |     - |    16M |   0 | 577 | 304 | 303 |   0 |  0 |   0 |   0 |-1.731763e+00 |      --      |    Inf | unknown
o 0.3s|     1 |     0 |   258 |     - |feaspump|   0 | 577 | 304 | 303 |   0 |  0 |   0 |   0 |-1.731763e+00 |-1.731763e+00 |   0.00%| unknown
  0.3s|     1 |     0 |   258 |     - |    16M |   0 | 577 | 304 | 303 |   0 |  0 |   0 |   0 |-1.731763e+00 |-1.731763e+00 |   0.00%| unknown

SCIP Status        : problem is solved [optimal solution found]
Solving Time (sec) : 0.26
Solving Nodes      : 1
Primal Bound       : -1.73176299957026e+00 (1 solutions)
Dual Bound         : -1.73176299957026e+00
Gap                : 0.00 %

primal solution (original space):
=================================

objective value:                    -1.73176299957026
y_1,64_                                             1 	(obj:0)
y_2,64_                                             1 	(obj:0)
y_3,64_                                             1 	(obj:0)
t_1,65_                           0.00360576923075265 	(obj:0)
x_1_                               -0.592098195100989 	(obj:1)
x_2_                               -0.569832402234637 	(obj:1)
t_3,65_                                             1 	(obj:0)
t_1,64_                             0.996394230769247 	(obj:0)
x_3_                               -0.569832402234637 	(obj:1)
t_2,65_                                             1 	(obj:0)

Statistics
==========

SCIP Status        : problem is solved [optimal solution found]
Total Time         :       0.26
  solving          :       0.26
  presolving       :       0.25 (included in solving)
  reading          :       0.00
  copying          :       0.00 (0 times copied the problem)
Original Problem   :
  Problem name     : ../modeles/3_179.lp
  Variables        : 1080 (537 binary, 0 integer, 0 implicit integer, 543 continuous)
  Constraints      : 550 initial, 550 maximal
  Objective        : minimize, 3 non-zeros (abs.min = 1, abs.max = 1)
Presolved Problem  :
  Problem name     : t_../modeles/3_179.lp
  Variables        : 577 (284 binary, 0 integer, 0 implicit integer, 293 continuous)
  Constraints      : 303 initial, 304 maximal
  Objective        : minimize, 293 non-zeros (abs.min = 0.0111732, abs.max = 1.26257)
  Nonzeros         : 2018 constraint, 284 clique table
Presolvers         :   ExecTime  SetupTime  Calls  FixedVars   AggrVars   ChgTypes  ChgBounds   AddHoles    DelCons    AddCons   ChgSides   ChgCoefs
  boundshift       :       0.00       0.00      0          0          0          0          0          0          0          0          0          0
  convertinttobin  :       0.00       0.00      0          0          0          0          0          0          0          0          0          0
  domcol           :       0.02       0.00     12          0          0          0          0          0          0          0          0          0
  dualagg          :       0.00       0.00      0          0          0          0          0          0          0          0          0          0
  dualcomp         :       0.00       0.00     12          0          0          0          0          0          0          0          0          0
  dualinfer        :       0.00       0.00      0          0          0          0          0          0          0          0          0          0
  dualsparsify     :       0.00       0.00      1          0          0          0          0          0          0          0          0          0
  gateextraction   :       0.00       0.00      0          0          0          0          0          0          0          0          0          0
  implics          :       0.00       0.00     22          0          0          0          0          0          0          0          0          0
  inttobinary      :       0.00       0.00      0          0          0          0          0          0          0          0          0          0
  milp             :       0.04       0.00      2        281          0          0          6          0          0          0          0          0
  qpkktref         :       0.00       0.00      0          0          0          0          0          0          0          0          0          0
  redvub           :       0.00       0.00      0          0          0          0          0          0          0          0          0          0
  sparsify         :       0.02       0.00      5          0          0          0          0          0          0          0          0        382
  stuffing         :       0.00       0.00      0          0          0          0          0          0          0          0          0          0
  trivial          :       0.00       0.00     33          0          0          0          0          0          0          0          0          0
  tworowbnd        :       0.00       0.00      0          0          0          0          0          0          0          0          0          0
  dualfix          :       0.00       0.00     33          0          0          0          0          0          0          0          0          0
  genvbounds       :       0.00       0.00      0          0          0          0          0          0          0          0          0          0
  probing          :       0.14       0.00     10        216          0          0          0          0          0          0          0          0
  pseudoobj        :       0.00       0.00      0          0          0          0          0          0          0          0          0          0
  symmetry         :       0.00       0.00      1          0          0          0          0          0          0          0          0          0
  vbounds          :       0.00       0.00      1          0          0          0          0          0          0          0          0          0
  varbound         :       0.00       0.00     51          0          0          0          3          0        164          0          0          0
  setppc           :       0.00       0.00     71          0          0          0          0          0          0          0          0          0
  linear           :       0.02       0.00     54          3          3          0       1152          0         74          0          0        534
  logicor          :       0.00       0.00      0          0          0          0          0          0          0          0          0          0
  benders          :       0.00       0.00      0          0          0          0          0          0          0          0          0          0
  components       :       0.00       0.00      1          0          0          0          0          0          0          0          0          0
  root node        :          -          -      -          0          -          -          0          -          -          -          -          -
Constraints        :     Number  MaxNumber  #Separate #Propagate    #EnfoLP    #EnfoRelax  #EnfoPS    #Check   #ResProp    Cutoffs    DomReds       Cuts    Applied      Conss   Children
  benderslp        :          0          0          0          0          0          0          0         12          0          0          0          0          0          0          0
  integral         :          0          0          0          0          0          0          0         12          0          0          0          0          0          0          0
  varbound         :         18         18          0       1475          0          0          0          6          0          0          0          0          0          0          0
  setppc           :          3          3          0       1458          0          0          0          6          0          0          0          0          0          0          0
  linear           :        282        282          0       1490          0          0          0          1          0        151          0          0          0          0          0
  logicor          :          0+         1          0          3          0          0          0          0          0          0          0          0          0          0          0
  benders          :          0          0          0          0          0          0          0          2          0          0          0          0          0          0          0
  countsols        :          0          0          0          0          0          0          0          2          0          0          0          0          0          0          0
  components       :          0          0          0          0          0          0          0          0          0          0          0          0          0          0          0
Constraint Timings :  TotalTime  SetupTime   Separate  Propagate     EnfoLP     EnfoPS     EnfoRelax   Check    ResProp    SB-Prop
  benderslp        :       0.00       0.00       0.00       0.00       0.00       0.00       0.00       0.00       0.00       0.00
  integral         :       0.00       0.00       0.00       0.00       0.00       0.00       0.00       0.00       0.00       0.00
  varbound         :       0.01       0.00       0.00       0.01       0.00       0.00       0.00       0.00       0.00       0.00
  setppc           :       0.00       0.00       0.00       0.00       0.00       0.00       0.00       0.00       0.00       0.00
  linear           :       0.04       0.00       0.00       0.04       0.00       0.00       0.00       0.00       0.00       0.00
  logicor          :       0.00       0.00       0.00       0.00       0.00       0.00       0.00       0.00       0.00       0.00
  benders          :       0.00       0.00       0.00       0.00       0.00       0.00       0.00       0.00       0.00       0.00
  countsols        :       0.00       0.00       0.00       0.00       0.00       0.00       0.00       0.00       0.00       0.00
  components       :       0.00       0.00       0.00       0.00       0.00       0.00       0.00       0.00       0.00       0.00
Propagators        : #Propagate   #ResProp    Cutoffs    DomReds
  dualfix          :          1          0          0          0
  genvbounds       :          0          0          0          0
  nlobbt           :          0          0          0          0
  obbt             :          0          0          0          0
  probing          :          0          0          0          0
  pseudoobj        :          2          0          0          0
  redcost          :          1          0          0          0
  rootredcost      :          0          0          0          0
  symmetry         :          0          0          0          0
  vbounds          :         50          0          0          0
Propagator Timings :  TotalTime  SetupTime   Presolve  Propagate    ResProp    SB-Prop
  dualfix          :       0.00       0.00       0.00       0.00       0.00       0.00
  genvbounds       :       0.00       0.00       0.00       0.00       0.00       0.00
  nlobbt           :       0.00       0.00       0.00       0.00       0.00       0.00
  obbt             :       0.00       0.00       0.00       0.00       0.00       0.00
  probing          :       0.14       0.00       0.14       0.00       0.00       0.00
  pseudoobj        :       0.00       0.00       0.00       0.00       0.00       0.00
  redcost          :       0.00       0.00       0.00       0.00       0.00       0.00
  rootredcost      :       0.00       0.00       0.00       0.00       0.00       0.00
  symmetry         :       0.00       0.00       0.00       0.00       0.00       0.00
  vbounds          :       0.00       0.00       0.00       0.00       0.00       0.00
Conflict Analysis  :       Time      Calls    Success    DomReds  Conflicts   Literals    Reconvs ReconvLits   Dualrays   Nonzeros   LP Iters   (pool size: [10000,10000])
  propagation      :       0.00          0          0          -          0        0.0          0        0.0          -          -          -
  infeasible LP    :       0.00          1          0          -          0        0.0          0        0.0          0        0.0          0
  bound exceed. LP :       0.00          0          0          -          0        0.0          0        0.0          0        0.0          0
  strong branching :       0.00          0          0          -          0        0.0          0        0.0          -          -          0
  pseudo solution  :       0.00          0          0          -          0        0.0          0        0.0          -          -          -
  applied globally :       0.00          -          -          0          0        0.0          -          -          0          -          -
  applied locally  :          -          -          -          0          0        0.0          -          -          0          -          -
Separators         :   ExecTime  SetupTime      Calls    Cutoffs    DomReds       Cuts    Applied      Conss
  cut pool         :       0.00                     0          -          -          0          -          -    (maximal pool size: 0)
  aggregation      :       0.00       0.00          0          0          0          0          0          0
  > cmir           :          -          -          -          -          -          -          0          -
  > flowcover      :          -          -          -          -          -          -          0          -
  > knapsackcover  :          -          -          -          -          -          -          0          -
  cgmip            :       0.00       0.00          0          0          0          0          0          0
  clique           :       0.00       0.00          0          0          0          0          0          0
  closecuts        :       0.00       0.00          0          0          0          0          0          0
  convexproj       :       0.00       0.00          0          0          0          0          0          0
  disjunctive      :       0.00       0.00          0          0          0          0          0          0
  eccuts           :       0.00       0.00          0          0          0          0          0          0
  gauge            :       0.00       0.00          0          0          0          0          0          0
  gomory           :       0.00       0.00          0          0          0          0          0          0
  > gomorymi       :          -          -          -          -          -          -          0          -
  > strongcg       :          -          -          -          -          -          -          0          -
  impliedbounds    :       0.00       0.00          0          0          0          0          0          0
  interminor       :       0.00       0.00          0          0          0          0          0          0
  intobj           :       0.00       0.00          0          0          0          0          0          0
  mcf              :       0.00       0.00          0          0          0          0          0          0
  minor            :       0.00       0.00          0          0          0          0          0          0
  mixing           :       0.00       0.00          0          0          0          0          0          0
  oddcycle         :       0.00       0.00          0          0          0          0          0          0
  rapidlearning    :       0.00       0.00          0          0          0          0          0          0
  rlt              :       0.00       0.00          0          0          0          0          0          0
  zerohalf         :       0.00       0.00          0          0          0          0          0          0
Cutselectors       :   ExecTime  SetupTime
  hybrid           :       0.00       0.00
Pricers            :   ExecTime  SetupTime      Calls       Vars
  problem variables:       0.00          -          0          0
Branching Rules    :   ExecTime  SetupTime   BranchLP  BranchExt   BranchPS    Cutoffs    DomReds       Cuts      Conss   Children
  allfullstrong    :       0.00       0.00          0          0          0          0          0          0          0          0
  cloud            :       0.00       0.00          0          0          0          0          0          0          0          0
  distribution     :       0.00       0.00          0          0          0          0          0          0          0          0
  fullstrong       :       0.00       0.00          0          0          0          0          0          0          0          0
  inference        :       0.00       0.00          0          0          0          0          0          0          0          0
  leastinf         :       0.00       0.00          0          0          0          0          0          0          0          0
  lookahead        :       0.00       0.00          0          0          0          0          0          0          0          0
  mostinf          :       0.00       0.00          0          0          0          0          0          0          0          0
  multaggr         :       0.00       0.00          0          0          0          0          0          0          0          0
  nodereopt        :       0.00       0.00          0          0          0          0          0          0          0          0
  pscost           :       0.00       0.00          0          0          0          0          0          0          0          0
  random           :       0.00       0.00          0          0          0          0          0          0          0          0
  relpscost        :       0.00       0.00          0          0          0          0          0          0          0          0
  vanillafullstrong:       0.00       0.00          0          0          0          0          0          0          0          0
Primal Heuristics  :   ExecTime  SetupTime      Calls      Found       Best
  LP solutions     :       0.00          -          -          0          0
  relax solutions  :       0.00          -          -          0          0
  pseudo solutions :       0.00          -          -          0          0
  strong branching :       0.00          -          -          0          0
  actconsdiving    :       0.00       0.00          0          0          0
  adaptivediving   :       0.00       0.00          0          0          0
  alns             :       0.00       0.00          0          0          0
  bound            :       0.00       0.00          0          0          0
  clique           :       0.00       0.00          1          0          0
  coefdiving       :       0.00       0.00          0          0          0
  completesol      :       0.00       0.00          0          0          0
  conflictdiving   :       0.00       0.00          0          0          0
  crossover        :       0.00       0.00          0          0          0
  dins             :       0.00       0.00          0          0          0
  distributiondivin:       0.00       0.00          0          0          0
  dps              :       0.00       0.00          0          0          0
  dualval          :       0.00       0.00          0          0          0
  farkasdiving     :       0.00       0.00          0          0          0
  feaspump         :       0.00       0.00          1          1          1
  fixandinfer      :       0.00       0.00          0          0          0
  fracdiving       :       0.00       0.00          0          0          0
  gins             :       0.00       0.00          0          0          0
  guideddiving     :       0.00       0.00          0          0          0
  indicator        :       0.00       0.00          0          0          0
  intdiving        :       0.00       0.00          0          0          0
  intshifting      :       0.00       0.00          0          0          0
  linesearchdiving :       0.00       0.00          0          0          0
  localbranching   :       0.00       0.00          0          0          0
  locks            :       0.00       0.00          1          0          0
  lpface           :       0.00       0.00          0          0          0
  mpec             :       0.00       0.00          0          0          0
  multistart       :       0.00       0.00          0          0          0
  mutation         :       0.00       0.00          0          0          0
  nlpdiving        :       0.00       0.00          0          0          0
  objpscostdiving  :       0.00       0.00          0          0          0
  octane           :       0.00       0.00          0          0          0
  ofins            :       0.00       0.00          0          0          0
  oneopt           :       0.00       0.00          0          0          0
  padm             :       0.00       0.00          0          0          0
  proximity        :       0.00       0.00          0          0          0
  pscostdiving     :       0.00       0.00          0          0          0
  randrounding     :       0.00       0.00          1          0          0
  rens             :       0.00       0.00          0          0          0
  reoptsols        :       0.00       0.00          0          0          0
  repair           :       0.00       0.00          0          0          0
  rins             :       0.00       0.00          0          0          0
  rootsoldiving    :       0.00       0.00          0          0          0
  rounding         :       0.00       0.00          1          0          0
  shiftandpropagate:       0.00       0.00          1          0          0
  shifting         :       0.00       0.00          1          0          0
  simplerounding   :       0.00       0.00          0          0          0
  subnlp           :       0.00       0.00          0          0          0
  trivial          :       0.00       0.00          2          0          0
  trivialnegation  :       0.00       0.00          0          0          0
  trustregion      :       0.00       0.00          0          0          0
  trysol           :       0.00       0.00          0          0          0
  twoopt           :       0.00       0.00          0          0          0
  undercover       :       0.00       0.00          0          0          0
  vbounds          :       0.00       0.00          0          0          0
  veclendiving     :       0.00       0.00          0          0          0
  zeroobj          :       0.00       0.00          0          0          0
  zirounding       :       0.00       0.00          0          0          0
  other solutions  :          -          -          -          0          -
Diving (single)    :      Calls      Nodes   LP Iters Backtracks  Conflicts   MinDepth   MaxDepth   AvgDepth  RoundSols  NLeafSols  MinSolDpt  MaxSolDpt  AvgSolDpt
  actconsdiving    :          0          -          -          -          -          -          -          -          -          -          -          -          -
  coefdiving       :          0          -          -          -          -          -          -          -          -          -          -          -          -
  conflictdiving   :          0          -          -          -          -          -          -          -          -          -          -          -          -
  distributiondivin:          0          -          -          -          -          -          -          -          -          -          -          -          -
  farkasdiving     :          0          -          -          -          -          -          -          -          -          -          -          -          -
  fracdiving       :          0          -          -          -          -          -          -          -          -          -          -          -          -
  guideddiving     :          0          -          -          -          -          -          -          -          -          -          -          -          -
  linesearchdiving :          0          -          -          -          -          -          -          -          -          -          -          -          -
  pscostdiving     :          0          -          -          -          -          -          -          -          -          -          -          -          -
  veclendiving     :          0          -          -          -          -          -          -          -          -          -          -          -          -
Diving (adaptive)  :      Calls      Nodes   LP Iters Backtracks  Conflicts   MinDepth   MaxDepth   AvgDepth  RoundSols  NLeafSols  MinSolDpt  MaxSolDpt  AvgSolDpt
  actconsdiving    :          0          -          -          -          -          -          -          -          -          -          -          -          -
  coefdiving       :          0          -          -          -          -          -          -          -          -          -          -          -          -
  conflictdiving   :          0          -          -          -          -          -          -          -          -          -          -          -          -
  distributiondivin:          0          -          -          -          -          -          -          -          -          -          -          -          -
  farkasdiving     :          0          -          -          -          -          -          -          -          -          -          -          -          -
  fracdiving       :          0          -          -          -          -          -          -          -          -          -          -          -          -
  guideddiving     :          0          -          -          -          -          -          -          -          -          -          -          -          -
  linesearchdiving :          0          -          -          -          -          -          -          -          -          -          -          -          -
  pscostdiving     :          0          -          -          -          -          -          -          -          -          -          -          -          -
  veclendiving     :          0          -          -          -          -          -          -          -          -          -          -          -          -
Neighborhoods      :      Calls  SetupTime  SolveTime SolveNodes       Sols       Best       Exp3  EpsGreedy        UCB TgtFixRate  Opt  Inf Node Stal  Sol  Usr Othr Actv
  rens             :          0       0.00       0.00          0          0          0    0.00000   -1.00000    1.00000      0.900    0    0    0    0    0    0    0    1
  rins             :          0       0.00       0.00          0          0          0    0.00000   -1.00000    1.00000      0.900    0    0    0    0    0    0    0    1
  mutation         :          0       0.00       0.00          0          0          0    0.00000   -1.00000    1.00000      0.900    0    0    0    0    0    0    0    1
  localbranching   :          0       0.00       0.00          0          0          0    0.00000   -1.00000    1.00000      0.900    0    0    0    0    0    0    0    1
  crossover        :          0       0.00       0.00          0          0          0    0.00000   -1.00000    1.00000      0.900    0    0    0    0    0    0    0    1
  proximity        :          0       0.00       0.00          0          0          0    0.00000   -1.00000    1.00000      0.900    0    0    0    0    0    0    0    1
  zeroobjective    :          0       0.00       0.00          0          0          0    0.00000   -1.00000    1.00000      0.900    0    0    0    0    0    0    0    1
  dins             :          0       0.00       0.00          0          0          0    0.00000   -1.00000    1.00000      0.900    0    0    0    0    0    0    0    1
  trustregion      :          0       0.00       0.00          0          0          0    0.00000   -1.00000    1.00000      0.900    0    0    0    0    0    0    0    0
LP                 :       Time      Calls Iterations  Iter/call   Iter/sec  Time-0-It Calls-0-It    ItLimit
  primal LP        :       0.00          0          0       0.00          -       0.00          0
  dual LP          :       0.00          1        180     180.00          -       0.00          0
  lex dual LP      :       0.00          0          0       0.00          -
  barrier LP       :       0.00          0          0       0.00          -       0.00          0
  resolve instable :       0.00          0          0       0.00          -
  diving/probing LP:       0.00          3         78      26.00          -
  strong branching :       0.00          0          0       0.00          -          -          -          0
    (at root node) :          -          0          0       0.00          -
  conflict analysis:       0.00          0          0       0.00          -
B&B Tree           :
  number of runs   :          1
  nodes            :          1 (0 internal, 1 leaves)
  feasible leaves  :          0
  infeas. leaves   :          0
  objective leaves :          1
  nodes (total)    :          1 (0 internal, 1 leaves)
  nodes left       :          0
  max depth        :          0
  max depth (total):          0
  backtracks       :          0 (0.0%)
  early backtracks :          0 (0.0%)
  nodes exc. ref.  :          0 (0.0%)
  delayed cutoffs  :          0
  repropagations   :          0 (0 domain reductions, 0 cutoffs)
  avg switch length:       2.00
  switching time   :       0.00
Estim. Tree Size   :          1
Estimation Tree    : 1 nodes (1 visited, 0 internal, 1 leaves, 0 open), weight: 1.0000 completed 1.0000
Estimations        :      estim      value      trend resolution     smooth
  wbe              :          1          -          -          -          -
  tree-profile     :         -1          -          -          -          -
  gap              :          1    1.00000    1.00000          1          1
  tree-weight      :          1    1.00000    1.00000          1          1
  leaf-frequency   :          1    0.50000    1.00000          1          1
  ssg              :          1    0.00000   -1.00000          1          1
  open-nodes       :          1    0.00000    0.00000          1          1
Root Node          :
  First LP value   : -1.73176299957026e+00
  First LP Iters   :        180 (57896.43 Iter/sec)
  First LP Time    :       0.00
  Final Dual Bound : -1.73176299957026e+00
  Final Root Iters :        213
  Root LP Estimate :                     -
Solution           :
  Solutions found  :          1 (1 improvements)
  First Solution   : -1.73176299957026e+00   (in run 1, after 1 nodes, 0.26 seconds, depth 0, found by <feaspump>)
  Gap First Sol.   :       0.00 %
  Gap Last Sol.    :       0.00 %
  Primal Bound     : -1.73176299957026e+00   (in run 1, after 1 nodes, 0.26 seconds, depth 0, found by <feaspump>)
  Dual Bound       : -1.73176299957026e+00
  Gap              :       0.00 %
Integrals          :      Total       Avg%
  primal-dual      :      26.16      99.92
  primal-ref       :          -          - (not evaluated)
  dual-ref         :          -          - (not evaluated)
